Solver command line: ['C:\\gurobi1102\\win64\\bin\\gurobi.bat']

Set parameter Username
Academic license - for non-commercial use only - expires 2025-06-25
Read LP format model from file C:\Users\danin\AppData\Local\Temp\tmpfbl_32wu.pyomo.lp
Reading time = 0.42 seconds
x1: 65100 rows, 65000 columns, 437500 nonzeros
Set parameter Cuts to value 1
Set parameter Presolve to value 1
Set parameter TimeLimit to value 1800
Set parameter MIPGap to value 0.01
Set parameter Threads to value 6
Gurobi Optimizer version 11.0.2 build v11.0.2rc0 (win64 - Windows 11.0 (22631.2))

CPU model: AMD Ryzen 5 4600H with Radeon Graphics, instruction set [SSE2|AVX|AVX2]
Thread count: 6 physical cores, 12 logical processors, using up to 6 threads

Optimize a model with 65100 rows, 65000 columns and 437500 nonzeros
Model fingerprint: 0xde43ab8a
Variable types: 1250 continuous, 63750 integer (63750 binary)
Coefficient statistics:
  Matrix range     [1e+00, 1e+03]
  Objective range  [1e+00, 6e+01]
  Bounds range     [1e+00, 1e+00]
  RHS range        [1e+00, 1e+03]
Presolve removed 50700 rows and 30450 columns
Presolve time: 0.32s
Presolved: 14400 rows, 34550 columns, 168600 nonzeros
Variable types: 1250 continuous, 33300 integer (33300 binary)
Deterministic concurrent LP optimizer: primal and dual simplex
Showing primal log only...

Concurrent spin time: 0.00s

Solved with dual simplex

Use crossover to convert LP symmetric solution to basic solution...

Root relaxation: objective 3.604485e+02, 1436 iterations, 0.12 seconds (0.09 work units)

    Nodes    |    Current Node    |     Objective Bounds      |     Work
 Expl Unexpl |  Obj  Depth IntInf | Incumbent    BestBd   Gap | It/Node Time

     0     0  360.44848    0    8          -  360.44848      -     -    0s
H    0     0                     547.2607779  360.44848  34.1%     -    0s
H    0     0                     543.9751865  360.44848  33.7%     -    0s
H    0     0                     365.9928058  360.44848  1.51%     -    1s
H    0     0                     364.7649682  360.44848  1.18%     -    1s
     0     0  360.44848    0   52  364.76497  360.44848  1.18%     -    1s
     0     0          -    0       364.76497  363.24680  0.42%     -    1s

Explored 1 nodes (2131 simplex iterations) in 1.55 seconds (1.13 work units)
Thread count was 6 (of 12 available processors)

Solution count 5: 364.765 365.993 368.096 ... 547.261

Optimal solution found (tolerance 1.00e-02)
Best objective 3.647649682313e+02, best bound 3.632468004116e+02, gap 0.4162%

